&CONTROL
    calculation =   'scf'   ,
    restart_mode = 'from_scratch' ,
    pseudo_dir = 'espresso-X.Y.Z/pseudo' ,
    prefix = 'OUT',
    wf_collect = .true. ,
 /
 &SYSTEM
     ibrav = 0,
     celldm(1) = 23.800077226938789 ,         !in bohr unit
     nat  = 128 ,  !number of atoms in unitcell
     ntyp  =  1 ,
     ecutwfc  =   3., !se diminuisco il valore diminuisce l'accuratezza 
                       !(é il cutoff all'energia cinetica che possono apportare 
                       !le onde piane che cosituiscono gli orbitali)
     occupations  =  'smearing' ,
     smearing  =  'gaussian'
     degauss  =  0.005,
 /
 &ELECTRONS
             conv_thr  =  1.0d-6  ,
             mixing_beta = 0.5 ,
 /
CELL_PARAMETERS (cubic)
   1.000000000  0.000000000   0.000000000
   0.000000000  0.866025404   0.000000000         !0.000000000  0.866025404   0.000000000
   0.000000000  0.000000000   0.816496581         !0.000000000  0.000000000   0.816496581
ATOMIC_SPECIES
  H  1.00794 H.coulomb-ae.UPF
ATOMIC_POSITIONS (crystal)             !distance are in unit cell(1=length of one side of the box) 
H	0.61158801047653200       0.65772534031768792       0.78285253076805028     
H	0.86158801047653200       0.65772534031768792       0.78285253076805028     
H	0.98658801047653200       0.90772534031768803       0.78285253076805028     
H	0.73658801047653200       0.90772534031768803       0.78285253076805028     
H	0.75000000000000000       0.73211734730204259       0.96714746923194972     
H	 0.0000000000000000       0.73211734730204259       0.96714746923194972     
H	0.87500000000000000       0.98211734730204270       0.96714746923194972     
H	0.62500000000000000       0.98211734730204270       0.96714746923194972     
H	0.61158801047653200       0.65772534031768792       0.28285253076805039     
H	0.86158801047653200       0.65772534031768792       0.28285253076805039     
H	0.98658801047653200       0.90772534031768803       0.28285253076805039     
H	0.73658801047653200       0.90772534031768803       0.28285253076805039     
H	0.75000000000000000       0.73211734730204259       0.46714746923194966     
H	 0.0000000000000000       0.73211734730204259       0.46714746923194966     
H	0.87500000000000000       0.98211734730204270       0.46714746923194966     
H	0.62500000000000000       0.98211734730204270       0.46714746923194966     
H	0.61158801047653200       0.15772534031768798       0.78285253076805028     
H	0.86158801047653200       0.15772534031768798       0.78285253076805028     
H	0.98658801047653200       0.40772534031768803       0.78285253076805028     
H	0.73658801047653200       0.40772534031768803       0.78285253076805028     
H	0.75000000000000000       0.23211734730204281       0.96714746923194972     
H	 0.0000000000000000       0.23211734730204281       0.96714746923194972     
H	0.87500000000000000       0.48211734730204264       0.96714746923194972     
H	0.62500000000000000       0.48211734730204264       0.96714746923194972     
H	0.61158801047653200       0.15772534031768798       0.28285253076805039     
H	0.86158801047653200       0.15772534031768798       0.28285253076805039     
H	0.98658801047653200       0.40772534031768803       0.28285253076805039     
H	0.73658801047653200       0.40772534031768803       0.28285253076805039     
H	0.75000000000000000       0.23211734730204281       0.46714746923194966     
H	 0.0000000000000000       0.23211734730204281       0.46714746923194966     
H	0.87500000000000000       0.48211734730204264       0.46714746923194966     
H	0.62500000000000000       0.48211734730204264       0.46714746923194966     
H	0.11158801047653200       0.65772534031768792       0.78285253076805028     
H	0.36158801047653205       0.65772534031768792       0.78285253076805028     
H	0.48658801047653205       0.90772534031768803       0.78285253076805028     
H	0.23658801047653200       0.90772534031768803       0.78285253076805028     
H	0.25000000000000000       0.73211734730204259       0.96714746923194972     
H	0.50000000000000000       0.73211734730204259       0.96714746923194972     
H	0.37500000000000000       0.98211734730204270       0.96714746923194972     
H	0.12500000000000000       0.98211734730204270       0.96714746923194972     
H	0.11158801047653200       0.65772534031768792       0.28285253076805039     
H	0.36158801047653205       0.65772534031768792       0.28285253076805039     
H	0.48658801047653205       0.90772534031768803       0.28285253076805039     
H	0.23658801047653200       0.90772534031768803       0.28285253076805039     
H	0.25000000000000000       0.73211734730204259       0.46714746923194966     
H	0.50000000000000000       0.73211734730204259       0.46714746923194966     
H	0.37500000000000000       0.98211734730204270       0.46714746923194966     
H	0.12500000000000000       0.98211734730204270       0.46714746923194966     
H	0.11158801047653200       0.15772534031768798       0.78285253076805028     
H	0.36158801047653205       0.15772534031768798       0.78285253076805028     
H	0.48658801047653205       0.40772534031768803       0.78285253076805028     
H	0.23658801047653200       0.40772534031768803       0.78285253076805028     
H	0.25000000000000000       0.23211734730204281       0.96714746923194972     
H	0.50000000000000000       0.23211734730204281       0.96714746923194972     
H	0.37500000000000000       0.48211734730204264       0.96714746923194972     
H	0.12500000000000000       0.48211734730204264       0.96714746923194972     
H	0.11158801047653200       0.15772534031768798       0.28285253076805039     
H	0.36158801047653205       0.15772534031768798       0.28285253076805039     
H	0.48658801047653205       0.40772534031768803       0.28285253076805039     
H	0.23658801047653200       0.40772534031768803       0.28285253076805039     
H	0.25000000000000000       0.23211734730204281       0.46714746923194966     
H	0.50000000000000000       0.23211734730204281       0.46714746923194966     
H	0.37500000000000000       0.48211734730204264       0.46714746923194966     
H	0.12500000000000000       0.48211734730204264       0.46714746923194966     
H	0.63841198952346789       0.67560799301564534       0.71714746923194972     
H	0.88841198952346800       0.67560799301564534       0.71714746923194972     
H	 1.3411989523467997E-002  0.92560799301564534       0.71714746923194972     
H	0.76341198952346800       0.92560799301564534       0.71714746923194972     
H	0.75000000000000000       0.76788265269795730        3.2852530768050295E-002
H	 0.0000000000000000       0.76788265269795730        3.2852530768050295E-002
H	0.87500000000000000        1.7882652697957326E-002   3.2852530768050295E-002
H	0.62500000000000000        1.7882652697957326E-002   3.2852530768050295E-002
H	0.63841198952346789       0.67560799301564534       0.21714746923194977     
H	0.88841198952346800       0.67560799301564534       0.21714746923194977     
H	 1.3411989523467997E-002  0.92560799301564534       0.21714746923194977     
H	0.76341198952346800       0.92560799301564534       0.21714746923194977     
H	0.75000000000000000       0.76788265269795730       0.53285253076805028     
H	 0.0000000000000000       0.76788265269795730       0.53285253076805028     
H	0.87500000000000000        1.7882652697957326E-002  0.53285253076805028     
H	0.62500000000000000        1.7882652697957326E-002  0.53285253076805028     
H	0.63841198952346789       0.17560799301564531       0.71714746923194972     
H	0.88841198952346800       0.17560799301564531       0.71714746923194972     
H	 1.3411989523467997E-002  0.42560799301564539       0.71714746923194972     
H	0.76341198952346800       0.42560799301564539       0.71714746923194972     
H	0.75000000000000000       0.26788265269795747        3.2852530768050295E-002
H	 0.0000000000000000       0.26788265269795747        3.2852530768050295E-002
H	0.87500000000000000       0.51788265269795719        3.2852530768050295E-002
H	0.62500000000000000       0.51788265269795719        3.2852530768050295E-002
H	0.63841198952346789       0.17560799301564531       0.21714746923194977     
H	0.88841198952346800       0.17560799301564531       0.21714746923194977     
H	 1.3411989523467997E-002  0.42560799301564539       0.21714746923194977     
H	0.76341198952346800       0.42560799301564539       0.21714746923194977     
H	0.75000000000000000       0.26788265269795747       0.53285253076805028     
H	 0.0000000000000000       0.26788265269795747       0.53285253076805028     
H	0.87500000000000000       0.51788265269795719       0.53285253076805028     
H	0.62500000000000000       0.51788265269795719       0.53285253076805028     
H	0.13841198952346800       0.67560799301564534       0.71714746923194972     
H	0.38841198952346800       0.67560799301564534       0.71714746923194972     
H	0.51341198952346789       0.92560799301564534       0.71714746923194972     
H	0.26341198952346800       0.92560799301564534       0.71714746923194972     
H	0.25000000000000000       0.76788265269795730        3.2852530768050295E-002
H	0.50000000000000000       0.76788265269795730        3.2852530768050295E-002
H	0.37500000000000000        1.7882652697957326E-002   3.2852530768050295E-002
H	0.12500000000000000        1.7882652697957326E-002   3.2852530768050295E-002
H	0.13841198952346800       0.67560799301564534       0.21714746923194977     
H	0.38841198952346800       0.67560799301564534       0.21714746923194977     
H	0.51341198952346789       0.92560799301564534       0.21714746923194977     
H	0.26341198952346800       0.92560799301564534       0.21714746923194977     
H	0.25000000000000000       0.76788265269795730       0.53285253076805028     
H	0.50000000000000000       0.76788265269795730       0.53285253076805028     
H	0.37500000000000000        1.7882652697957326E-002  0.53285253076805028     
H	0.12500000000000000        1.7882652697957326E-002  0.53285253076805028     
H	0.13841198952346800       0.17560799301564531       0.71714746923194972     
H	0.38841198952346800       0.17560799301564531       0.71714746923194972     
H	0.51341198952346789       0.42560799301564539       0.71714746923194972     
H	0.26341198952346800       0.42560799301564539       0.71714746923194972     
H	0.25000000000000000       0.26788265269795747        3.2852530768050295E-002
H	0.50000000000000000       0.26788265269795747        3.2852530768050295E-002
H	0.37500000000000000       0.51788265269795719        3.2852530768050295E-002
H	0.12500000000000000       0.51788265269795719        3.2852530768050295E-002
H	0.13841198952346800       0.17560799301564531       0.21714746923194977     
H	0.38841198952346800       0.17560799301564531       0.21714746923194977     
H	0.51341198952346789       0.42560799301564539       0.21714746923194977     
H	0.26341198952346800       0.42560799301564539       0.21714746923194977     
H	0.25000000000000000       0.26788265269795747       0.53285253076805028     
H	0.50000000000000000       0.26788265269795747       0.53285253076805028     
H	0.37500000000000000       0.51788265269795719       0.53285253076805028     
H	0.12500000000000000       0.51788265269795719       0.53285253076805028     
K_POINTS (gamma)
