atom_style	atomic
units   	metal
dimension	3
boundary 	p p p
processors      * * 1

read_data       ./data.ch4

### Optimized Tersoff for Carbon: Lindsay and Broido PRB 81, 205441 (2010) 
pair_style      airebo 2.5 1 0
pair_coeff      * * ../CH.airebo C H

fix		1  all driver airebo-ch4 31415 unix
run		5000000

